p td 22 129
2 1
3 2
3 1
4 1
4 2
5 4
5 2
6 2
6 4
7 6
7 1
8 2
8 3
8 5
9 8
9 2
9 3
9 1
9 7
9 4
10 1
10 8
10 6
10 3
10 5
10 4
10 2
10 7
10 9
11 8
11 5
12 4
12 7
12 3
12 8
12 10
12 5
12 1
13 1
13 5
13 12
13 8
13 2
13 9
13 7
13 11
14 8
14 10
14 9
14 13
14 11
14 2
14 5
14 12
14 7
15 12
15 11
15 8
15 9
15 5
16 1
16 9
16 2
16 5
16 8
16 7
17 5
17 13
17 4
17 11
17 14
17 2
17 6
18 11
18 5
18 7
18 13
18 9
18 14
18 1
18 4
18 15
19 4
19 17
19 13
19 9
19 16
19 6
19 7
19 8
19 5
19 18
19 11
19 15
19 12
19 14
20 9
20 13
20 2
20 12
20 18
20 8
20 16
20 6
20 19
21 10
21 15
21 2
21 4
21 8
21 13
21 16
21 12
21 1
21 5
21 18
21 9
22 11
22 6
22 19
22 1
22 3
22 7
22 17
22 5
22 18
22 15
22 8
22 21
